HUN,8,6,443
1,16,3,30,5,21,4,76,0,85,2,98
4,78,2,6,3,97,1,75,5,92,0,20
1,87,3,17,2,48,4,65,5,41,0,94
4,13,3,19,2,70,1,95,5,80,0,9
4,73,1,92,2,11,5,68,3,56,0,37
3,34,5,28,2,23,1,24,4,98,0,24
5,23,3,93,1,45,2,42,0,57,4,74
1,49,4,16,0,68,2,96,5,29,3,74
